15 200
0 250 250 0 0 1925 0 -1 -1
0 396 417 13 0 1925 10 0 0
1 51 286 -13 0 1925 10 1 0
2 288 439 16 0 1925 10 0 1
3 399 175 13 0 1925 10 0 1
4 247 306 33 0 1925 10 0 1
5 247 443 17 0 1925 10 0 1
6 80 400 10 0 1925 10 0 1
7 226 423 15 0 1925 10 0 1
8 394 322 12 0 1925 10 0 1
9 257 391 -116 0 1925 10 1 1
10 176 199 28 0 1925 10 0 2
11 34 329 -28 0 1925 10 1 2
12 144 35 26 0 1925 10 0 3
13 111 392 18 0 1925 10 0 3
14 235 13 27 0 1925 10 0 3
15 103 464 -71 0 1925 10 1 3
16 154 374 36 0 1925 10 0 4
17 10 237 19 0 1925 10 0 4
18 84 255 13 0 1925 10 0 4
19 244 277 18 0 1925 0 0 4
20 273 149 14 0 1925 0 0 4
21 289 220 19 0 1925 10 0 4
22 190 267 -119 0 1925 10 1 4
23 0 356 13 0 1925 10 0 5
24 226 316 21 0 1925 10 0 5
25 139 438 24 0 1925 10 0 5
26 274 261 -58 0 1925 10 1 5
27 29 358 23 0 1925 10 0 6
28 235 288 18 0 1925 10 0 6
29 138 28 23 0 1925 10 0 6
30 329 456 19 0 1925 10 0 6
31 59 388 20 0 1925 10 0 6
32 248 386 22 0 1925 10 0 6
33 172 66 -125 0 1925 10 1 6
34 382 360 26 0 1925 10 0 7
35 318 280 21 0 1925 10 0 7
36 360 488 19 0 1925 10 0 7
37 400 71 17 0 1925 0 0 7
38 375 145 12 0 1925 10 0 7
39 351 128 15 0 1925 10 0 7
40 272 234 -110 0 1925 10 1 7
41 306 235 25 0 1925 10 0 8
42 198 85 28 0 1925 10 0 8
43 337 41 8 0 1925 10 0 8
44 355 174 33 0 1925 10 0 8
45 330 138 18 0 1925 0 0 8
46 437 90 12 0 1925 0 0 8
47 225 269 -124 0 1925 10 1 8
48 394 47 5 0 1925 10 0 9
49 268 288 -5 0 1925 10 1 9
